Minimize
-1 l1194 + -1 l1581 + -1 l1190 + -1 l1573
 + -1 l1192 + -1 l2292 + -1 l1196 + -1 l2294
 + -1 l1577 + -1 l2291 + -1 l1186 + -1 l2293
 + -1 l1198 + -1 l1570 + -1 l1568 + -1 l1571
 + -1 l1569 + -1 l1576 + -1 l1578 + -1 l1580
 + -1 l1575 + -1 l1184 + -1 l1574 + -1 l1188
 + -1 l1579 + -1 l1567 + -1 l1572 + -1 l1582
 + 1 u1194 + 1 u1581 + 1 u1190 + 1 u1573
 + 1 u1192 + 1 u2292 + 1 u1196 + 1 u2294
 + 1 u1577 + 1 u2291 + 1 u1186 + 1 u2293
 + 1 u1198 + 1 u1570 + 1 u1568 + 1 u1571
 + 1 u1569 + 1 u1576 + 1 u1578 + 1 u1580
 + 1 u1575 + 1 u1184 + 1 u1574 + 1 u1188
 + 1 u1579 + 1 u1567 + 1 u1572 + 1 u1582


Subject To
C0: 1 x1194 + -1 x1192 <= -1089
C1: 1 x1194 + -1 x1196 <= -1089
C2: 1 x1194 + -1 x1186 <= -1089
C3: 1 x1194 + -1 x1198 <= -1089
C4: 1 x1194 + -1 x1571 <= -1089
C5: 1 x1194 + -1 x1569 <= -1089
C6: 1 x1194 + -1 x1576 <= -1089
C7: 1 x1194 + -1 x1578 <= -1089
C8: 1 x1194 + -1 x1580 <= -1089
C9: 1 x1194 + -1 x1575 <= -1089
C10: 1 x1194 + -1 x1184 <= -1089
C11: 1 x1194 + -1 x1574 <= -1089
C12: 1 x1194 + -1 x1188 <= -1089
C13: 1 x1194 + -1 x1579 <= -1089
C14: 1 x1194 + -1 x1567 <= -1089
C15: 1 x1194 + -1 x1572 <= -1089
C16: 1 x1194 + -1 x1582 <= -1089
C17: 1 x1581 + -1 x1190 <= -518
C18: 1 x1581 + -1 x1196 <= -518
C19: 1 x1581 + -1 x1186 <= -518
C20: 1 x1581 + -1 x1569 <= -518
C21: 1 x1581 + -1 x1576 <= -518
C22: 1 x1581 + -1 x1580 <= -518
C23: 1 x1581 + -1 x1575 <= -518
C24: 1 x1581 + -1 x1184 <= -518
C25: 1 x1581 + -1 x1574 <= -518
C26: 1 x1581 + -1 x1188 <= -518
C27: 1 x1581 + -1 x1579 <= -518
C28: 1 x1581 + -1 x1567 <= -518
C29: 1 x1581 + -1 x1572 <= -518
C30: 1 x1581 + -1 x1582 <= -518
C31: 1 x1190 + -1 x1196 <= -1089
C32: 1 x1190 + -1 x1576 <= -1089
C33: 1 x1190 + -1 x1575 <= -1089
C34: 1 x1190 + -1 x1184 <= -1089
C35: 1 x1190 + -1 x1188 <= -1089
C36: 1 x1190 + -1 x1579 <= -1089
C37: 1 x1190 + -1 x1567 <= -1089
C38: 1 x1190 + -1 x1572 <= -1089
C39: 1 x1573 + -1 x2294 <= -518
C40: 1 x1573 + -1 x1577 <= -518
C41: 1 x1573 + -1 x2291 <= -518
C42: 1 x1573 + -1 x2293 <= -518
C43: 1 x1573 + -1 x1198 <= -518
C44: 1 x1573 + -1 x1568 <= -518
C45: 1 x1573 + -1 x1571 <= -518
C46: 1 x1573 + -1 x1569 <= -518
C47: 1 x1573 + -1 x1578 <= -518
C48: 1 x1573 + -1 x1580 <= -518
C49: 1 x1573 + -1 x1184 <= -518
C50: 1 x1573 + -1 x1574 <= -518
C51: 1 x1573 + -1 x1188 <= -518
C52: 1 x1573 + -1 x1579 <= -518
C53: 1 x1573 + -1 x1567 <= -518
C54: 1 x1573 + -1 x1582 <= -518
C55: 1 x1192 + -1 x1186 <= -1089
C56: 1 x1192 + -1 x1569 <= -1089
C57: 1 x1192 + -1 x1576 <= -1089
C58: 1 x1192 + -1 x1578 <= -1089
C59: 1 x1192 + -1 x1580 <= -1089
C60: 1 x1192 + -1 x1575 <= -1089
C61: 1 x1192 + -1 x1184 <= -1089
C62: 1 x1192 + -1 x1574 <= -1089
C63: 1 x1192 + -1 x1188 <= -1089
C64: 1 x1192 + -1 x1579 <= -1089
C65: 1 x1192 + -1 x1567 <= -1089
C66: 1 x1192 + -1 x1572 <= -1089
C67: 1 x1192 + -1 x1582 <= -1089
C68: 1 x2292 + -1 x2294 <= -83
C69: 1 x2292 + -1 x1577 <= -83
C70: 1 x2292 + -1 x2291 <= -83
C71: 1 x2292 + -1 x2293 <= -83
C72: 1 x2292 + -1 x1198 <= -83
C73: 1 x2292 + -1 x1568 <= -83
C74: 1 x2292 + -1 x1571 <= -83
C75: 1 x2292 + -1 x1569 <= -83
C76: 1 x2292 + -1 x1578 <= -83
C77: 1 x2292 + -1 x1580 <= -83
C78: 1 x2292 + -1 x1184 <= -83
C79: 1 x2292 + -1 x1574 <= -83
C80: 1 x2292 + -1 x1188 <= -83
C81: 1 x2292 + -1 x1579 <= -83
C82: 1 x2292 + -1 x1567 <= -83
C83: 1 x2292 + -1 x1582 <= -83
C84: 1 x1196 + -1 x1576 <= -1089
C85: 1 x1196 + -1 x1575 <= -1089
C86: 1 x1196 + -1 x1184 <= -1089
C87: 1 x1196 + -1 x1188 <= -1089
C88: 1 x1196 + -1 x1579 <= -1089
C89: 1 x1196 + -1 x1567 <= -1089
C90: 1 x1196 + -1 x1572 <= -1089
C91: 1 x2294 + -1 x1577 <= -83
C92: 1 x2294 + -1 x2291 <= -83
C93: 1 x2294 + -1 x2293 <= -83
C94: 1 x2294 + -1 x1198 <= -83
C95: 1 x2294 + -1 x1568 <= -83
C96: 1 x2294 + -1 x1571 <= -83
C97: 1 x2294 + -1 x1569 <= -83
C98: 1 x2294 + -1 x1578 <= -83
C99: 1 x2294 + -1 x1580 <= -83
C100: 1 x2294 + -1 x1184 <= -83
C101: 1 x2294 + -1 x1574 <= -83
C102: 1 x2294 + -1 x1188 <= -83
C103: 1 x2294 + -1 x1579 <= -83
C104: 1 x2294 + -1 x1567 <= -83
C105: 1 x2294 + -1 x1582 <= -83
C106: 1 x1577 + -1 x2293 <= -518
C107: 1 x1577 + -1 x1568 <= -518
C108: 1 x1577 + -1 x1571 <= -518
C109: 1 x1577 + -1 x1569 <= -518
C110: 1 x1577 + -1 x1578 <= -518
C111: 1 x1577 + -1 x1580 <= -518
C112: 1 x1577 + -1 x1574 <= -518
C113: 1 x1577 + -1 x1188 <= -518
C114: 1 x1577 + -1 x1579 <= -518
C115: 1 x1577 + -1 x1567 <= -518
C116: 1 x1577 + -1 x1582 <= -518
C117: 1 x2291 + -1 x2293 <= -83
C118: 1 x2291 + -1 x1198 <= -83
C119: 1 x2291 + -1 x1568 <= -83
C120: 1 x2291 + -1 x1571 <= -83
C121: 1 x2291 + -1 x1569 <= -83
C122: 1 x2291 + -1 x1578 <= -83
C123: 1 x2291 + -1 x1580 <= -83
C124: 1 x2291 + -1 x1184 <= -83
C125: 1 x2291 + -1 x1574 <= -83
C126: 1 x2291 + -1 x1188 <= -83
C127: 1 x2291 + -1 x1579 <= -83
C128: 1 x2291 + -1 x1567 <= -83
C129: 1 x2291 + -1 x1582 <= -83
C130: 1 x1186 + -1 x1569 <= -1089
C131: 1 x1186 + -1 x1576 <= -1089
C132: 1 x1186 + -1 x1184 <= -1089
C133: 1 x1186 + -1 x1574 <= -1089
C134: 1 x1186 + -1 x1188 <= -1089
C135: 1 x1186 + -1 x1579 <= -1089
C136: 1 x1186 + -1 x1567 <= -1089
C137: 1 x1186 + -1 x1582 <= -1089
C138: 1 x2293 + -1 x1568 <= -83
C139: 1 x2293 + -1 x1571 <= -83
C140: 1 x2293 + -1 x1569 <= -83
C141: 1 x2293 + -1 x1578 <= -83
C142: 1 x2293 + -1 x1580 <= -83
C143: 1 x2293 + -1 x1574 <= -83
C144: 1 x2293 + -1 x1188 <= -83
C145: 1 x2293 + -1 x1579 <= -83
C146: 1 x2293 + -1 x1567 <= -83
C147: 1 x2293 + -1 x1582 <= -83
C148: -1 x1198 + 1 x1570 <= -518
C149: 1 x1198 + -1 x1569 <= -1089
C150: 1 x1198 + -1 x1578 <= -1089
C151: 1 x1198 + -1 x1580 <= -1089
C152: 1 x1198 + -1 x1574 <= -1089
C153: 1 x1198 + -1 x1188 <= -1089
C154: 1 x1198 + -1 x1579 <= -1089
C155: 1 x1198 + -1 x1567 <= -1089
C156: 1 x1198 + -1 x1582 <= -1089
C157: 1 x1570 + -1 x1571 <= -518
C158: 1 x1570 + -1 x1569 <= -518
C159: 1 x1570 + -1 x1576 <= -518
C160: 1 x1570 + -1 x1578 <= -518
C161: 1 x1570 + -1 x1580 <= -518
C162: 1 x1570 + -1 x1184 <= -518
C163: 1 x1570 + -1 x1574 <= -518
C164: 1 x1570 + -1 x1188 <= -518
C165: 1 x1570 + -1 x1579 <= -518
C166: 1 x1570 + -1 x1567 <= -518
C167: 1 x1570 + -1 x1582 <= -518
C168: 1 x1568 + -1 x1571 <= -518
C169: 1 x1568 + -1 x1578 <= -518
C170: 1 x1568 + -1 x1580 <= -518
C171: 1 x1568 + -1 x1574 <= -518
C172: 1 x1568 + -1 x1188 <= -518
C173: 1 x1568 + -1 x1567 <= -518
C174: 1 x1568 + -1 x1582 <= -518
C175: 1 x1571 + -1 x1578 <= -518
C176: 1 x1571 + -1 x1580 <= -518
C177: 1 x1571 + -1 x1574 <= -518
C178: 1 x1571 + -1 x1188 <= -518
C179: 1 x1571 + -1 x1567 <= -518
C180: 1 x1571 + -1 x1582 <= -518
C181: 1 x1569 + -1 x1188 <= -518
C182: 1 x1569 + -1 x1579 <= -518
C183: 1 x1569 + -1 x1567 <= -518
C184: 1 x1569 + -1 x1582 <= -518
C185: 1 x1576 + -1 x1184 <= -518
C186: 1 x1576 + -1 x1579 <= -518
C187: 1 x1576 + -1 x1567 <= -518
C188: 1 x1578 + -1 x1574 <= -518
C189: 1 x1578 + -1 x1582 <= -518
C190: 1 x1580 + -1 x1188 <= -518
C191: 1 x1580 + -1 x1582 <= -518
C192: 1 x1575 + -1 x1572 <= -518
C193: 1 x1574 + -1 x1582 <= -518
C194: -1 x1194 + 1 l1194 <= 0
C195: -1 x1194 + 1 u1194 >= 0
C196: -1 x1581 + 1 l1581 <= 0
C197: -1 x1581 + 1 u1581 >= 0
C198: -1 x1190 + 1 l1190 <= 0
C199: -1 x1190 + 1 u1190 >= 0
C200: -1 x1573 + 1 l1573 <= 0
C201: -1 x1573 + 1 u1573 >= 0
C202: -1 x1192 + 1 l1192 <= 0
C203: -1 x1192 + 1 u1192 >= 0
C204: -1 x2292 + 1 l2292 <= 0
C205: -1 x2292 + 1 u2292 >= 0
C206: -1 x1196 + 1 l1196 <= 0
C207: -1 x1196 + 1 u1196 >= 0
C208: -1 x2294 + 1 l2294 <= 0
C209: -1 x2294 + 1 u2294 >= 0
C210: -1 x1577 + 1 l1577 <= 0
C211: -1 x1577 + 1 u1577 >= 0
C212: -1 x2291 + 1 l2291 <= 0
C213: -1 x2291 + 1 u2291 >= 0
C214: -1 x1186 + 1 l1186 <= 0
C215: -1 x1186 + 1 u1186 >= 0
C216: -1 x2293 + 1 l2293 <= 0
C217: -1 x2293 + 1 u2293 >= 0
C218: -1 x1198 + 1 l1198 <= 0
C219: -1 x1198 + 1 u1198 >= 0
C220: -1 x1570 + 1 l1570 <= 0
C221: -1 x1570 + 1 u1570 >= 0
C222: -1 x1568 + 1 l1568 <= 0
C223: -1 x1568 + 1 u1568 >= 0
C224: -1 x1571 + 1 l1571 <= 0
C225: -1 x1571 + 1 u1571 >= 0
C226: -1 x1569 + 1 l1569 <= 0
C227: -1 x1569 + 1 u1569 >= 0
C228: -1 x1576 + 1 l1576 <= 0
C229: -1 x1576 + 1 u1576 >= 0
C230: -1 x1578 + 1 l1578 <= 0
C231: -1 x1578 + 1 u1578 >= 0
C232: -1 x1580 + 1 l1580 <= 0
C233: -1 x1580 + 1 u1580 >= 0
C234: -1 x1575 + 1 l1575 <= 0
C235: -1 x1575 + 1 u1575 >= 0
C236: -1 x1184 + 1 l1184 <= 0
C237: -1 x1184 + 1 u1184 >= 0
C238: -1 x1574 + 1 l1574 <= 0
C239: -1 x1574 + 1 u1574 >= 0
C240: -1 x1188 + 1 l1188 <= 0
C241: -1 x1188 + 1 u1188 >= 0
C242: -1 x1579 + 1 l1579 <= 0
C243: -1 x1579 + 1 u1579 >= 0
C244: -1 x1567 + 1 l1567 <= 0
C245: -1 x1567 + 1 u1567 >= 0
C246: -1 x1572 + 1 l1572 <= 0
C247: -1 x1572 + 1 u1572 >= 0
C248: -1 x1582 + 1 l1582 <= 0
C249: -1 x1582 + 1 u1582 >= 0
Bounds
0 <= x1194 <= 4594
0 <= x1581 <= 5165
0 <= x1190 <= 4594
0 <= x1573 <= 5165
0 <= x1192 <= 4594
0 <= x2292 <= 5600
0 <= x1196 <= 4594
0 <= x2294 <= 5600
0 <= x1577 <= 5165
0 <= x2291 <= 5600
0 <= x1186 <= 4594
0 <= x2293 <= 5600
0 <= x1198 <= 4594
0 <= x1570 <= 5165
0 <= x1568 <= 5165
0 <= x1571 <= 5165
0 <= x1569 <= 5165
0 <= x1576 <= 5165
0 <= x1578 <= 5165
0 <= x1580 <= 5165
0 <= x1575 <= 5165
0 <= x1184 <= 4594
0 <= x1574 <= 5165
0 <= x1188 <= 4594
0 <= x1579 <= 5165
0 <= x1567 <= 5165
0 <= x1572 <= 5165
0 <= x1582 <= 5165
0 <= l1194 <= 183
0 <= l1581 <= 379
0 <= l1190 <= 497
0 <= l1573 <= 991
0 <= l1192 <= 948
0 <= l2292 <= 1474
0 <= l1196 <= 1468
0 <= l2294 <= 1612
0 <= l1577 <= 1560
0 <= l2291 <= 1768
0 <= l1186 <= 1779
0 <= l2293 <= 1835
0 <= l1198 <= 1671
0 <= l1570 <= 2361
0 <= l1568 <= 2564
0 <= l1571 <= 2981
0 <= l1569 <= 2982
0 <= l1576 <= 3519
0 <= l1578 <= 4923
0 <= l1580 <= 5105
0 <= l1575 <= 4268
0 <= l1184 <= 4446
0 <= l1574 <= 4834
0 <= l1188 <= 4534
0 <= l1579 <= 4691
0 <= l1567 <= 5105
0 <= l1572 <= 5105
0 <= l1582 <= 5105
183 <= u1194 <= 5683
379 <= u1581 <= 5683
497 <= u1190 <= 5683
991 <= u1573 <= 5683
948 <= u1192 <= 5683
1474 <= u2292 <= 5683
1468 <= u1196 <= 5683
1612 <= u2294 <= 5683
1560 <= u1577 <= 5683
1768 <= u2291 <= 5683
1779 <= u1186 <= 5683
1835 <= u2293 <= 5683
1671 <= u1198 <= 5683
2361 <= u1570 <= 5683
2564 <= u1568 <= 5683
2981 <= u1571 <= 5683
2982 <= u1569 <= 5683
3519 <= u1576 <= 5683
4923 <= u1578 <= 5683
5105 <= u1580 <= 5683
4268 <= u1575 <= 5683
4446 <= u1184 <= 5683
4834 <= u1574 <= 5683
4534 <= u1188 <= 5683
4691 <= u1579 <= 5683
5105 <= u1567 <= 5683
5105 <= u1572 <= 5683
5105 <= u1582 <= 5683
Generals
End
